WARNING: for repeatability, setting FPU to use double precision
============================[ Problem Statistics ]=============================
|                                                                             |
|  Number of variables:            50                                         |
|  Number of clauses:             218                                         |
|  Parse time:                   0.00 s                                       |
|                                                                             |
============================[ Search Statistics ]==============================
| Conflicts |          ORIGINAL         |          LEARNT          | Progress |
|           |    Vars  Clauses Literals |    Limit  Clauses Lit/Cl |          |
===============================================================================
===============================================================================
restarts              : 1
conflicts             : 33             (23289 /sec)
decisions             : 48             (0.00 % random) (33874 /sec)
propagations          : 530            (374030 /sec)
conflict literals     : 148            (16.38 % deleted)
Memory used           : 20.00 MB
CPU time              : 0.001417 s

SATISFIABLE
